100
128
23
3
24
36
34
58
44
30
13
44
39
31
47
4
38
26
8
23
23
2
7
1
12
25
10
35
11
24
18
25
23
36
50
17
44
33
14
55
39
30
32
14
17
38
61
31
34
18
63
25
34
58
22
52
24
46
48
36
39
64
23
19
37
35
35
42
3
62
21
50
25
44
44
25
59
64
28
40
32
4
1
3
6
41
36
43
62
63
28
1
1
51
47
62
31
35
38
63
32
25